Maximize
 0
Subject To
 epc_0!1: +99.35360066264786 y_1!1_2!1 +26.444703826773946 y_1!2_2!1 -8.472697898461902 y_1!3_2!1 -23.09702574471153 y_1!1_2!2 +95.92137081325646 y_1!2_2!2 -55.314618995514195 y_1!3_2!2 -1.0210351816819525 y_1!1_2!3 -24.225053497315912 y_1!2_2!3 +92.70868504926517 y_1!3_2!3 + lambda_0!1 - mu_0 = 0
 epc_0!2: -63.6816321641728 y_1!1_2!1 +22.78846468787205 y_1!2_2!1 -2.8312869178950706 y_1!3_2!1 +29.556895312062835 y_1!1_2!2 +77.7831254767959 y_1!2_2!2 +34.44877216724137 y_1!3_2!2 -17.304037338031165 y_1!1_2!3 -83.21453185922749 y_1!2_2!3 -94.0057662841063 y_1!3_2!3 + lambda_0!2 - mu_0 = 0
 epc_0!3: +2.925320020487902 y_1!1_2!1 +48.318520917740386 y_1!2_2!1 +62.22692662722778 y_1!3_2!1 +10.5966027715277 y_1!1_2!2 +66.62850697974869 y_1!2_2!2 +1.4206426892983615 y_1!3_2!2 -75.83590526617805 y_1!1_2!3 -28.88454660715483 y_1!2_2!3 +53.581810697359145 y_1!3_2!3 + lambda_0!3 - mu_0 = 0
 dc_0: x_0!1 + x_0!2 + x_0!3 = 1
 bc_0!1: lambda_0!1 +293.35936694675416 x_0!1 <= 293.35936694675416
 bc_0!2: lambda_0!2 +293.35936694675416 x_0!2 <= 293.35936694675416
 bc_0!3: lambda_0!3 +293.35936694675416 x_0!3 <= 293.35936694675416
 sum_0!1: y_1!1_2!1 - x_1!1 - x_2!1 >= -1
 idk_0!1!1: y_1!1_2!1 - x_1!1 <= 0
 idk_0!1!2: y_1!1_2!1 - x_2!1 <= 0
 sum_0!2: y_1!2_2!1 - x_1!2 - x_2!1 >= -1
 idk_0!2!1: y_1!2_2!1 - x_1!2 <= 0
 idk_0!2!2: y_1!2_2!1 - x_2!1 <= 0
 sum_0!3: y_1!3_2!1 - x_1!3 - x_2!1 >= -1
 idk_0!3!1: y_1!3_2!1 - x_1!3 <= 0
 idk_0!3!2: y_1!3_2!1 - x_2!1 <= 0
 sum_0!4: y_1!1_2!2 - x_1!1 - x_2!2 >= -1
 idk_0!4!1: y_1!1_2!2 - x_1!1 <= 0
 idk_0!4!2: y_1!1_2!2 - x_2!2 <= 0
 sum_0!5: y_1!2_2!2 - x_1!2 - x_2!2 >= -1
 idk_0!5!1: y_1!2_2!2 - x_1!2 <= 0
 idk_0!5!2: y_1!2_2!2 - x_2!2 <= 0
 sum_0!6: y_1!3_2!2 - x_1!3 - x_2!2 >= -1
 idk_0!6!1: y_1!3_2!2 - x_1!3 <= 0
 idk_0!6!2: y_1!3_2!2 - x_2!2 <= 0
 sum_0!7: y_1!1_2!3 - x_1!1 - x_2!3 >= -1
 idk_0!7!1: y_1!1_2!3 - x_1!1 <= 0
 idk_0!7!2: y_1!1_2!3 - x_2!3 <= 0
 sum_0!8: y_1!2_2!3 - x_1!2 - x_2!3 >= -1
 idk_0!8!1: y_1!2_2!3 - x_1!2 <= 0
 idk_0!8!2: y_1!2_2!3 - x_2!3 <= 0
 sum_0!9: y_1!3_2!3 - x_1!3 - x_2!3 >= -1
 idk_0!9!1: y_1!3_2!3 - x_1!3 <= 0
 idk_0!9!2: y_1!3_2!3 - x_2!3 <= 0
 epc_1!1: +60.651253355124766 y_0!1_2!1 -3.8268857182444123 y_0!2_2!1 +81.04568965949102 y_0!3_2!1 -63.79148754866264 y_0!1_2!2 +59.28031990613283 y_0!2_2!2 +15.950314511126606 y_0!3_2!2 +79.88636140350638 y_0!1_2!3 -99.70230965735666 y_0!2_2!3 -66.68996048283935 y_0!3_2!3 + lambda_1!1 - mu_1 = 0
 epc_1!2: -56.464691655070375 y_0!1_2!1 -94.50465062585998 y_0!2_2!1 -59.49720659551958 y_0!3_2!1 -51.07471888280352 y_0!1_2!2 +71.54870836118039 y_0!2_2!2 +71.8137394178604 y_0!3_2!2 -63.659274022777666 y_0!1_2!3 +48.81133757479245 y_0!2_2!3 +83.06217266015565 y_0!3_2!3 + lambda_1!2 - mu_1 = 0
 epc_1!3: +4.234761276819384 y_0!1_2!1 +55.79286296973888 y_0!2_2!1 -46.3044343769879 y_0!3_2!1 -18.210793896778796 y_0!1_2!2 +87.3160069952034 y_0!2_2!2 -7.6886878296134284 y_0!3_2!2 +11.926289802246899 y_0!1_2!3 -77.37411929002502 y_0!2_2!3 +77.9063377145614 y_0!3_2!3 + lambda_1!3 - mu_1 = 0
 dc_1: x_1!1 + x_1!2 + x_1!3 = 1
 bc_1!1: lambda_1!1 +293.35936694675416 x_1!1 <= 293.35936694675416
 bc_1!2: lambda_1!2 +293.35936694675416 x_1!2 <= 293.35936694675416
 bc_1!3: lambda_1!3 +293.35936694675416 x_1!3 <= 293.35936694675416
 sum_1!1: y_0!1_2!1 - x_0!1 - x_2!1 >= -1
 idk_1!1!0: y_0!1_2!1 - x_0!1 <= 0
 idk_1!1!2: y_0!1_2!1 - x_2!1 <= 0
 sum_1!2: y_0!2_2!1 - x_0!2 - x_2!1 >= -1
 idk_1!2!0: y_0!2_2!1 - x_0!2 <= 0
 idk_1!2!2: y_0!2_2!1 - x_2!1 <= 0
 sum_1!3: y_0!3_2!1 - x_0!3 - x_2!1 >= -1
 idk_1!3!0: y_0!3_2!1 - x_0!3 <= 0
 idk_1!3!2: y_0!3_2!1 - x_2!1 <= 0
 sum_1!4: y_0!1_2!2 - x_0!1 - x_2!2 >= -1
 idk_1!4!0: y_0!1_2!2 - x_0!1 <= 0
 idk_1!4!2: y_0!1_2!2 - x_2!2 <= 0
 sum_1!5: y_0!2_2!2 - x_0!2 - x_2!2 >= -1
 idk_1!5!0: y_0!2_2!2 - x_0!2 <= 0
 idk_1!5!2: y_0!2_2!2 - x_2!2 <= 0
 sum_1!6: y_0!3_2!2 - x_0!3 - x_2!2 >= -1
 idk_1!6!0: y_0!3_2!2 - x_0!3 <= 0
 idk_1!6!2: y_0!3_2!2 - x_2!2 <= 0
 sum_1!7: y_0!1_2!3 - x_0!1 - x_2!3 >= -1
 idk_1!7!0: y_0!1_2!3 - x_0!1 <= 0
 idk_1!7!2: y_0!1_2!3 - x_2!3 <= 0
 sum_1!8: y_0!2_2!3 - x_0!2 - x_2!3 >= -1
 idk_1!8!0: y_0!2_2!3 - x_0!2 <= 0
 idk_1!8!2: y_0!2_2!3 - x_2!3 <= 0
 sum_1!9: y_0!3_2!3 - x_0!3 - x_2!3 >= -1
 idk_1!9!0: y_0!3_2!3 - x_0!3 <= 0
 idk_1!9!2: y_0!3_2!3 - x_2!3 <= 0
 epc_2!1: -15.74179475934568 y_0!1_1!1 -41.757447260744684 y_0!2_1!1 -32.191545054387504 y_0!3_1!1 -75.83988114917044 y_0!1_1!2 -74.81909845007364 y_0!2_1!2 +43.37660494798942 y_0!3_1!2 -73.42702769654056 y_0!1_1!3 +21.6785477759571 y_0!2_1!3 +58.5839468328835 y_0!3_1!3 + lambda_2!1 - mu_2 = 0
 epc_2!2: -94.10598400858257 y_0!1_1!1 +66.69881937046694 y_0!2_1!1 +47.30846937380497 y_0!3_1!1 -30.648847770210196 y_0!1_1!2 +12.251451629408194 y_0!2_1!2 +16.72298696921402 y_0!3_1!2 -32.50597019871297 y_0!1_1!3 -77.42031123028532 y_0!2_1!3 +89.92991239213836 y_0!3_1!3 + lambda_2!2 - mu_2 = 0
 epc_2!3: -10.080984349393106 y_0!1_1!1 -14.542863068606437 y_0!2_1!1 -76.5811871279389 y_0!3_1!1 -45.64790449143115 y_0!1_1!2 -49.64470307650104 y_0!2_1!2 -27.57064805946621 y_0!3_1!2 +17.965628102295426 y_0!1_1!3 +40.97880375533322 y_0!2_1!3 +94.65336569366465 y_0!3_1!3 + lambda_2!3 - mu_2 = 0
 dc_2: x_2!1 + x_2!2 + x_2!3 = 1
 bc_2!1: lambda_2!1 +293.35936694675416 x_2!1 <= 293.35936694675416
 bc_2!2: lambda_2!2 +293.35936694675416 x_2!2 <= 293.35936694675416
 bc_2!3: lambda_2!3 +293.35936694675416 x_2!3 <= 293.35936694675416
 sum_2!1: y_0!1_1!1 - x_0!1 - x_1!1 >= -1
 idk_2!1!0: y_0!1_1!1 - x_0!1 <= 0
 idk_2!1!1: y_0!1_1!1 - x_1!1 <= 0
 sum_2!2: y_0!2_1!1 - x_0!2 - x_1!1 >= -1
 idk_2!2!0: y_0!2_1!1 - x_0!2 <= 0
 idk_2!2!1: y_0!2_1!1 - x_1!1 <= 0
 sum_2!3: y_0!3_1!1 - x_0!3 - x_1!1 >= -1
 idk_2!3!0: y_0!3_1!1 - x_0!3 <= 0
 idk_2!3!1: y_0!3_1!1 - x_1!1 <= 0
 sum_2!4: y_0!1_1!2 - x_0!1 - x_1!2 >= -1
 idk_2!4!0: y_0!1_1!2 - x_0!1 <= 0
 idk_2!4!1: y_0!1_1!2 - x_1!2 <= 0
 sum_2!5: y_0!2_1!2 - x_0!2 - x_1!2 >= -1
 idk_2!5!0: y_0!2_1!2 - x_0!2 <= 0
 idk_2!5!1: y_0!2_1!2 - x_1!2 <= 0
 sum_2!6: y_0!3_1!2 - x_0!3 - x_1!2 >= -1
 idk_2!6!0: y_0!3_1!2 - x_0!3 <= 0
 idk_2!6!1: y_0!3_1!2 - x_1!2 <= 0
 sum_2!7: y_0!1_1!3 - x_0!1 - x_1!3 >= -1
 idk_2!7!0: y_0!1_1!3 - x_0!1 <= 0
 idk_2!7!1: y_0!1_1!3 - x_1!3 <= 0
 sum_2!8: y_0!2_1!3 - x_0!2 - x_1!3 >= -1
 idk_2!8!0: y_0!2_1!3 - x_0!2 <= 0
 idk_2!8!1: y_0!2_1!3 - x_1!3 <= 0
 sum_2!9: y_0!3_1!3 - x_0!3 - x_1!3 >= -1
 idk_2!9!0: y_0!3_1!3 - x_0!3 <= 0
 idk_2!9!1: y_0!3_1!3 - x_1!3 <= 0
Bounds
 mu_0 free
 mu_1 free
 mu_2 free
Binary
 x_0!1 x_0!2 x_0!3 x_1!1 x_1!2 x_1!3 x_2!1 x_2!2 x_2!3
End
